100
393 54
39 214
427 337
256 310
390 24
397 143
140 146
259 96
472 361
443 196
196 337
169 417
327 266
69 412
244 353
289 289
223 370
392 22
14 409
41 462
310 330
3 389
265 331
399 368
22 298
336 15
347 295
91 253
372 451
298 167
315 334
479 386
165 94
85 307
204 68
50 129
400 182
274 435
360 173
275 312
183 182
238 475
396 41
239 124
195 351
95 39
211 177
183 217
211 255
484 359
108 193
415 255
360 471
80 468
384 182
117 131
148 399
56 141
253 102
25 63
369 286
242 425
385 160
343 178
247 69
142 413
464 328
440 488
341 149
124 214
378 342
270 407
286 482
368 50
486 384
339 481
450 35
177 461
313 326
322 208
193 257
217 130
2 177
113 73
439 14
312 211
470 136
378 357
142 497
132 427
307 429
437 411
123 383
59 430
356 411
474 4
373 354
337 109
136 264
429 310